\ Model QCP
\ LP format - for model browsing. Use MPS format to capture full model detail.
Minimize
  z + 1.27 y
Subject To
 Cut_0: z + [ ] >= 529
 Cut_1: z + [ 27.05882352941176 y ^2 ] >= 3922.411764705882
 Cut_2: z + [ 5.285714285714286 y ^2 ] >= 1549.142857142857
Bounds
 529 <= z <= 1433
 9.591663046625438 <= y <= 13.8924439894498
End
